(set-logic ALL)
(declare-fun seed0_value2 () String)
(declare-fun seed0_key2 () String)
(assert (and (or (and (and (and (and (and (and (and (and (and (and (= (ite (= (str.len (str.substr seed0_value2 1 (- (str.len seed0_value2) 1))) 0) 1 0) 0) (not (= (ite (= (str.at seed0_value2 0) "\u{9}") 1 0) 0))) (= (ite (= (str.at seed0_value2 0) " ") 1 0) 0)) (= (ite (= (str.len seed0_value2) 0) 1 0) 0)) (not (= (ite (= (str.indexof seed0_value2 "=" 0) (- 1)) 1 0) 0))) (= (ite (not (= (str.indexof seed0_value2 "=" 0) (- 1))) 1 0) 0)) (= (ite (str.contains seed0_value2 ",") 1 0) 0)) (= (ite (= (str.len seed0_value2) 0) 1 0) 0)) (not (= (ite (= seed0_key2 "cache-control") 1 0) 0))) (not (= (ite (= seed0_key2 "cache-control") 1 0) 0))) (>= 1 0)) (xor (str.<= (str.++ seed0_value2 "upVP") (str.++ seed0_value2 "")) (str.< (str.++ seed0_value2 "uaWsHlr01ZpOw5YmxF") (str.++ seed0_key2 "CFWKI8dZb2")))) (or (>= (- (str.len seed0_value2) 1) 0) (=> (str.<= (str.++ seed0_value2 "HAD9") (str.++ seed0_value2 "bd304HqyYFo")) (str.contains (str.++ seed0_key2 "") (str.++ seed0_key2 "3ZyviwLrY6gXCUscotN"))))))
(check-sat)
(exit)